53428
1,2,3,16,4,8,13,14,15,12,19,11,18,17,10,9,21,20,26,33,32,31,30,35,34,53,56,52,55,57,60,59,58,61,62,63,64,72,73,71,70,69,65,66,67,68,74,75,76,54,51,36,40,41,103,46,49,48,50,47,45,42,44,43,105,104,106,108,109,107,110,111,99,118,38,39,130,129,128,127,28,27,29,37,131,123,120,119,121,122,125,126,132,133,134,135,136,184,186,141,185,140,139,138,142,24,23,22,137,143,144,145,25,146,170,169,163,159,158,157,164,160,161,162,166,165,172,174,178,180,181,179,182,195,196,183,171,173,176,177,189,188,187,190,192,197,199,200,201,202,191,193,194,198,150,149,148,147,151,152,153,154,155,175,167,168,117,116,115,114,113,112,100,95,96,97,98,93,92,87,89,90,81,80,79,78,77,82,91,86,83,85,84,94,88,101,102,156,124,7,6,5,1
